NAME : LRC1_6_10
TYPE : PDPTW
DIMENSION : 150
EDGE_WEIGHT_TYPE : EXACT_2D
NODE_COORD_SECTION
1 1 0
2 150 0
3 0 0
4 -10 807
5 0 2
6 44 194
7 3 199
8 601 10
9 61 84
10 10 9
11 103 20
12 0 98
13 -10 49
14 0 7
15 585 735
16 8 230
17 470 10
18 55 68
19 10 0
20 180 27
21 0 207
22 11 246
23 539 12
24 203 353
25 13 257
26 291 10
27 57 155
28 10 535
29 26 25
30 0 604
31 -20 123
32 0 17
33 167 317
34 18 89
35 343 10
36 84 231
37 10 0
38 240 -26
39 384 0
40 20 130
41 436 22
42 85 235
43 23 180
44 203 10
45 240 73
46 10 0
47 265 20
48 0 210
49 -30 30
50 0 27
51 140 290
52 28 160
53 193 10
54 289 130
55 10 0
56 255 5
57 0 406
58 38 292
59 239 32
60 522 672
61 33 115
62 207 10
63 250 228
64 10 280
65 89 -10
66 28 0
67 -10 82
68 0 37
69 33 183
70 38 159
71 300 10
72 47 277
73 10 218
74 269 -16
75 377 0
76 -6 163
77 0 42
78 136 286
79 43 74
80 894 10
81 140 140
82 10 438
83 241 2
84 0 610
85 20 98
86 266 47
87 67 217
88 48 136
89 684 10
90 250 124
91 10 0
92 299 -10
93 108 0
94 -10 153
95 0 52
96 118 268
97 53 212
98 269 10
99 259 59
100 10 0
101 104 -20
102 543 0
103 20 110
104 128 57
105 569 719
106 58 57
107 301 10
108 232 121
109 10 408
110 132 10
111 0 170
112 24 311
113 159 62
114 88 238
115 63 143
116 189 10
117 248 41
118 10 172
119 263 -10
120 582 0
121 20 57
122 115 67
123 90 240
124 68 259
125 346 10
126 38 139
127 10 243
128 41 14
129 0 614
130 -10 140
131 0 72
132 156 306
133 73 102
134 933 10
135 43 286
136 10 0
137 160 -40
138 340 0
139 13 78
140 424 77
141 143 293
142 78 88
143 724 10
144 122 127
145 10 0
146 63 10
147 0 486
148 -13 97
149 0 82
150 580 730
PICKUP_AND_DELIVERY_SECTION
1 0 0 0 0 0 0
2 0 0 0 0 1206 0
3 0 0 0 0 0 125
4 0 0 0 0 10 10
5 0 0 0 0 107 107
6 0 0 0 0 488 488
7 0 0 0 0 -18 -18
8 0 0 0 0 0 0
9 0 0 0 0 273 273
10 0 0 0 0 5 0
11 0 0 0 0 203 203
12 0 0 0 0 143 143
13 0 0 0 0 10 10
14 0 0 0 0 141 141
15 0 0 0 0 0 0
16 0 0 0 0 -10 -10
17 0 0 0 0 0 0
18 0 0 0 0 125 125
19 0 0 0 0 10 10
20 0 0 0 0 462 462
21 0 0 0 0 159 159
22 0 0 0 0 10 10
23 0 0 0 0 4 4
24 0 0 0 0 0 0
25 0 0 0 0 -30 -30
26 0 0 0 0 0 0
27 0 0 0 0 93 93
28 0 0 0 0 15 0
29 0 0 0 0 655 655
30 0 0 0 0 231 231
31 0 0 0 0 10 10
32 0 0 0 0 132 132
33 0 0 0 0 289 289
34 0 0 0 0 14 14
35 0 0 0 0 397 0
36 0 0 0 0 485 485
37 0 0 0 0 20 20
38 0 0 0 0 615 615
39 0 0 0 0 110 110
40 0 0 0 0 10 10
41 0 0 0 0 74 74
42 0 0 0 0 0 0
43 0 0 0 0 -10 -10
44 0 0 0 0 0 0
45 0 0 0 0 118 118
46 0 0 0 0 25 25
47 0 0 0 0 328 328
48 0 0 0 0 134 134
49 0 0 0 0 10 10
50 0 0 0 0 59 59
51 0 0 0 0 301 301
52 0 0 0 0 10 10
53 0 0 0 0 35 0
54 0 0 0 0 269 269
55 0 0 0 0 30 30
56 0 0 0 0 331 331
57 0 0 0 0 234 234
58 0 0 0 0 10 10
59 0 0 0 0 208 208
60 0 0 0 0 501 501
61 0 0 0 0 -20 -20
62 0 0 0 0 0 0
63 0 0 0 0 717 717
64 0 0 0 0 35 0
65 0 0 0 0 916 916
66 0 0 0 0 105 105
67 0 0 0 0 10 10
68 0 0 0 0 183 183
69 0 0 0 0 174 174
70 0 0 0 0 15 15
71 0 0 0 0 203 0
72 0 0 0 0 163 163
73 0 0 0 0 40 0
74 0 0 0 0 536 536
75 0 0 0 0 212 212
76 0 0 0 0 10 10
77 0 0 0 0 149 149
78 0 0 0 0 147 147
79 0 0 0 0 -40 -40
80 0 0 0 0 0 0
81 0 0 0 0 14 14
82 0 0 0 0 45 0
83 0 0 0 0 761 761
84 0 0 0 0 222 222
85 0 0 0 0 10 10
86 0 0 0 0 124 124
87 0 0 0 0 0 0
88 0 0 0 0 -30 -30
89 0 0 0 0 0 0
90 0 0 0 0 103 103
91 0 0 0 0 50 50
92 0 0 0 0 467 467
93 0 0 0 0 258 258
94 0 0 0 0 10 10
95 0 0 0 0 47 47
96 0 0 0 0 0 0
97 0 0 0 0 -20 -20
98 0 0 0 0 0 0
99 0 0 0 0 141 141
100 0 0 0 0 55 55
101 0 0 0 0 196 196
102 0 0 0 0 77 77
103 0 0 0 0 10 10
104 0 0 0 0 45 45
105 0 0 0 0 272 272
106 0 0 0 0 23 23
107 0 0 0 0 310 0
108 0 0 0 0 517 517
109 0 0 0 0 60 0
110 0 0 0 0 256 256
111 0 0 0 0 18 18
112 0 0 0 0 10 10
113 0 0 0 0 113 113
114 0 0 0 0 0 0
115 0 0 0 0 20 20
116 0 0 0 0 553 0
117 0 0 0 0 409 409
118 0 0 0 0 65 0
119 0 0 0 0 331 331
120 0 0 0 0 109 109
121 0 0 0 0 10 10
122 0 0 0 0 71 71
123 0 0 0 0 0 0
124 0 0 0 0 -10 -10
125 0 0 0 0 0 0
126 0 0 0 0 277 277
127 0 0 0 0 70 0
128 0 0 0 0 434 434
129 0 0 0 0 255 255
130 0 0 0 0 10 10
131 0 0 0 0 122 122
132 0 0 0 0 160 160
133 0 0 0 0 -13 -13
134 0 0 0 0 0 0
135 0 0 0 0 173 173
136 0 0 0 0 75 75
137 0 0 0 0 240 240
138 0 0 0 0 172 172
139 0 0 0 0 10 10
140 0 0 0 0 22 22
141 0 0 0 0 164 164
142 0 0 0 0 -15 -15
143 0 0 0 0 0 0
144 0 0 0 0 0 36
145 0 0 0 0 80 80
146 0 0 0 0 281 281
147 0 0 0 0 53 53
148 0 0 0 0 10 10
149 0 0 0 0 281 281
150 0 0 0 0 536 536
DEPOT_SECTION
1 
-1
EOF
